17640
0 0 0 0 1 1 0 1 1 0 1 0 0 1 0 0 1 0 1 0 1 1 1 0 0 1 0 1 0 0
10 8 4 7 16 8 16 18 7 4 20 13 18 21 13 21 16 8 7 5 10 8 8 7 5 10 20 8 25 27 4 13 10 7 4 20 27 27 16 5 4 13 18 21 21 7 20 16 5 7 22 13 8 7 13 21 18 5 5 5 10 13 8 7 13 4 13 22 10 4 20 21 8 10 21 10 7 8 5 7 4 13 10 7 4 8 18 27 8 5 4 13 8 10 4 21 13 18 10 16 4 13 22 7 4 10 20 8 8 13 10 27 8 5 7 22 27 8 25 5 21 20 16 5 7 22 16 8 13 25 22 13 16 7 7 21 27 8 7 25 4 13 18 10 4 22 20 16 8 25